min: c;

c = 3.84869823065506 * u4_t1_h1 + 3.7119501205291 * u4_t1_h2 + 3.43420439593478 * u4_t1_h3 + 3.33559492678571 * u4_t1_h4 + 3.33559492678571 * u4_t10_h4 + 3.18304158625902 * u4_t1_h5 + 3.18304158625902 * u4_t10_h5 + 3.90684082930606 * u4_t1_h6 + 3.90684082930606 * u4_t10_h6 + 4.29202553596209 * u4_t1_h7 + 4.29202553596209 * u4_t10_h7 + 5.34411616206675 * u4_t1_h8 + 5.34411616206675 * u4_t9_h8 + 5.34411616206675 * u4_t10_h8 + 4.52219721130611 * u4_t9_h9 + 4.52219721130611 * u4_t10_h9 + 5.54366661695272 * u4_t9_h10 + 5.54366661695272 * u4_t10_h10 + 3.42393966068999 * u4_t2_h11 + 3.42393966068999 * u4_t4_h11 + 3.42393966068999 * u4_t9_h11 + 3.42393966068999 * u4_t10_h11 + 6.41110931784788 * u4_t2_h12 + 6.41110931784788 * u4_t3_h12 + 6.41110931784788 * u4_t4_h12 + 6.41110931784788 * u4_t8_h12 + 6.41110931784788 * u4_t9_h12 + 6.41110931784788 * u4_t10_h12 + 4.0997153819109 * u4_t2_h13 + 4.0997153819109 * u4_t3_h13 + 4.0997153819109 * u4_t4_h13 + 4.0997153819109 * u4_t8_h13 + 4.0997153819109 * u4_t9_h13 + 5.47269556859578 * u4_t2_h14 + 5.47269556859578 * u4_t3_h14 + 5.47269556859578 * u4_t4_h14 + 5.47269556859578 * u4_t8_h14 + 5.47269556859578 * u4_t9_h14 + 5.84215413820695 * u4_t2_h15 + 5.84215413820695 * u4_t3_h15 + 5.84215413820695 * u4_t4_h15 + 5.84215413820695 * u4_t8_h15 + 5.84215413820695 * u4_t9_h15 + 6.27836394929794 * u4_t2_h16 + 6.27836394929794 * u4_t3_h16 + 6.27836394929794 * u4_t4_h16 + 6.27836394929794 * u4_t5_h16 + 6.27836394929794 * u4_t8_h16 + 6.27836394929794 * u4_t9_h16 + 6.45287817362296 * u4_t2_h17 + 6.45287817362296 * u4_t3_h17 + 6.45287817362296 * u4_t5_h17 + 6.45287817362296 * u4_t8_h17 + 6.45287817362296 * u4_t9_h17 + 6.70777660899307 * u4_t2_h18 + 6.70777660899307 * u4_t3_h18 + 6.70777660899307 * u4_t5_h18 + 6.70777660899307 * u4_t8_h18 + 6.70777660899307 * u4_t9_h18 + 5.90263285089527 * u4_t2_h19 + 5.90263285089527 * u4_t3_h19 + 5.90263285089527 * u4_t6_h19 + 5.90263285089527 * u4_t8_h19 + 5.90263285089527 * u4_t9_h19 + 5.98855589162359 * u4_t2_h20 + 5.98855589162359 * u4_t6_h20 + 5.98855589162359 * u4_t9_h20 + 5.75452347084445 * u4_t6_h21 + 5.89286777227716 * u4_t6_h22 + 5.89286777227716 * u4_t7_h22 + 5.26320570663901 * u4_t6_h23 + 5.26320570663901 * u4_t7_h23;
0 <= u4_t1_h1 <= 1;
0 <= u4_t1_h2 <= 1;
0 <= u4_t1_h3 <= 1;
0 <= u4_t1_h4 <= 1;
0 <= u4_t1_h5 <= 1;
0 <= u4_t1_h6 <= 1;
0 <= u4_t1_h7 <= 1;
0 <= u4_t1_h8 <= 1;
u4_t1_h1 + u4_t1_h2 + u4_t1_h3 + u4_t1_h4 + u4_t1_h5 + u4_t1_h6 + u4_t1_h7 + u4_t1_h8 = 1;
0 <= u4_t2_h11 <= 1;
0 <= u4_t2_h12 <= 1;
0 <= u4_t2_h13 <= 1;
0 <= u4_t2_h14 <= 1;
0 <= u4_t2_h15 <= 1;
0 <= u4_t2_h16 <= 1;
0 <= u4_t2_h17 <= 1;
0 <= u4_t2_h18 <= 1;
0 <= u4_t2_h19 <= 1;
0 <= u4_t2_h20 <= 1;
u4_t2_h11 + u4_t2_h12 + u4_t2_h13 + u4_t2_h14 + u4_t2_h15 + u4_t2_h16 + u4_t2_h17 + u4_t2_h18 + u4_t2_h19 + u4_t2_h20 = 2;
0 <= u4_t3_h12 <= 1;
0 <= u4_t3_h13 <= 1;
0 <= u4_t3_h14 <= 1;
0 <= u4_t3_h15 <= 1;
0 <= u4_t3_h16 <= 1;
0 <= u4_t3_h17 <= 1;
0 <= u4_t3_h18 <= 1;
0 <= u4_t3_h19 <= 1;
u4_t3_h12 + u4_t3_h13 + u4_t3_h14 + u4_t3_h15 + u4_t3_h16 + u4_t3_h17 + u4_t3_h18 + u4_t3_h19 = 3;
0 <= u4_t4_h11 <= 1;
0 <= u4_t4_h12 <= 1;
0 <= u4_t4_h13 <= 1;
0 <= u4_t4_h14 <= 1;
0 <= u4_t4_h15 <= 1;
0 <= u4_t4_h16 <= 1;
u4_t4_h11 + u4_t4_h12 + u4_t4_h13 + u4_t4_h14 + u4_t4_h15 + u4_t4_h16 = 3;
0 <= u4_t5_h16 <= 1;
0 <= u4_t5_h17 <= 1;
0 <= u4_t5_h18 <= 1;
u4_t5_h16 + u4_t5_h17 + u4_t5_h18 = 1;
0 <= u4_t6_h19 <= 1;
0 <= u4_t6_h20 <= 1;
0 <= u4_t6_h21 <= 1;
0 <= u4_t6_h22 <= 1;
0 <= u4_t6_h23 <= 1;
u4_t6_h19 + u4_t6_h20 + u4_t6_h21 + u4_t6_h22 + u4_t6_h23 = 3;
0 <= u4_t7_h22 <= 1;
0 <= u4_t7_h23 <= 1;
u4_t7_h22 + u4_t7_h23 = 1;
0 <= u4_t8_h12 <= 1;
0 <= u4_t8_h13 <= 1;
0 <= u4_t8_h14 <= 1;
0 <= u4_t8_h15 <= 1;
0 <= u4_t8_h16 <= 1;
0 <= u4_t8_h17 <= 1;
0 <= u4_t8_h18 <= 1;
0 <= u4_t8_h19 <= 1;
u4_t8_h12 + u4_t8_h13 + u4_t8_h14 + u4_t8_h15 + u4_t8_h16 + u4_t8_h17 + u4_t8_h18 + u4_t8_h19 = 2;
0 <= u4_t9_h8 <= 1;
0 <= u4_t9_h9 <= 1;
0 <= u4_t9_h10 <= 1;
0 <= u4_t9_h11 <= 1;
0 <= u4_t9_h12 <= 1;
0 <= u4_t9_h13 <= 1;
0 <= u4_t9_h14 <= 1;
0 <= u4_t9_h15 <= 1;
0 <= u4_t9_h16 <= 1;
0 <= u4_t9_h17 <= 1;
0 <= u4_t9_h18 <= 1;
0 <= u4_t9_h19 <= 1;
0 <= u4_t9_h20 <= 1;
u4_t9_h8 + u4_t9_h9 + u4_t9_h10 + u4_t9_h11 + u4_t9_h12 + u4_t9_h13 + u4_t9_h14 + u4_t9_h15 + u4_t9_h16 + u4_t9_h17 + u4_t9_h18 + u4_t9_h19 + u4_t9_h20 = 2;
0 <= u4_t10_h4 <= 1;
0 <= u4_t10_h5 <= 1;
0 <= u4_t10_h6 <= 1;
0 <= u4_t10_h7 <= 1;
0 <= u4_t10_h8 <= 1;
0 <= u4_t10_h9 <= 1;
0 <= u4_t10_h10 <= 1;
0 <= u4_t10_h11 <= 1;
0 <= u4_t10_h12 <= 1;
u4_t10_h4 + u4_t10_h5 + u4_t10_h6 + u4_t10_h7 + u4_t10_h8 + u4_t10_h9 + u4_t10_h10 + u4_t10_h11 + u4_t10_h12 = 2;
